570  570  570  570  -1  
602  602  602  602  -1  
446  446  446  446  -1  
468  468  468  468  -1  
320  320  320  320  -1  
512  512  512  512  -1  
448  448  448  448  -1  
520  520  520  520  -1  
752  752  752  752  -1  
404  404  404  404  -1  
544  544  544  544  -1  
318  318  318  318  -1  
424  424  424  424  -1  
568  568  568  568  -1  
594  594  594  594  -1  
